[2026-02-24T20:14:00] Logging to: /run/media/saveas/Secondary-Storage/Masters/CS234/CS234_Reinforcement_Learning/Final Project/CS234_Final_Project/results/trajectory_optimization/run_trajopt_demo_output.log
======================================================================
IPOPT TRAJECTORY OPTIMIZATION DEMO (SINGLE STAGE)
======================================================================

1. Loading track: /run/media/saveas/Secondary-Storage/Masters/CS234/CS234_Reinforcement_Learning/Final Project/CS234_Final_Project/maps/Medium_Oval_Map_260m.mat
   Track length: 260.0 m

2. Creating vehicle model...
   Vehicle: SingleTrackModel(VW_Golf_GTI, weight_transfer=enabled)

3. Loaded obstacles from map: 0

4. Setup:
   N = 120
   ds = 2.17 m
   Obstacle subsamples/segment = 7
   Track buffer = 0.00 m
   lambda_u = 0.001
   vehicle_radius_m = 0.00
   eps_s = 0.100, eps_kappa = 0.050

======================================================================
SINGLE STAGE: COMBINED OBJECTIVE (ACCEPTANCE-GATED)
======================================================================
Acceptance gates: success=True, max_slack<=0.000e+00, min_clearance>=-0.0010 m
Acceptance policy: practical epsilon mode (allows tiny negative dense clearance).
Initializer: obstacle_aware_init=True, sigma=8.00 m, margin=0.30 m

Attempt 1/4: baseline
  N=120, ds=2.167 m, subsamples=7, obstacle_clearance_m=0.000

******************************************************************************
This program contains Ipopt, a library for large-scale nonlinear optimization.
 Ipopt is released as open source code under the Eclipse Public License (EPL).
         For more information visit https://github.com/coin-or/Ipopt
******************************************************************************

This is Ipopt version 3.14.11, running with linear solver MUMPS 5.4.1.

Number of nonzeros in equality constraint Jacobian...:    12267
Number of nonzeros in inequality constraint Jacobian.:     1556
Number of nonzeros in Lagrangian Hessian.............:     4459

Total number of variables............................:     1210
                     variables with only lower bounds:        0
                variables with lower and upper bounds:        0
                     variables with only upper bounds:        0
Total number of equality constraints.................:      970
Total number of inequality constraints...............:     1262
        inequality constraints with only lower bounds:      778
   inequality constraints with lower and upper bounds:        0
        inequality constraints with only upper bounds:      484

iter    objective    inf_pr   inf_du lg(mu)  ||d||  lg(rg) alpha_du alpha_pr  ls
   0  2.6000000e+01 1.20e-01 1.03e+00  -1.0 0.00e+00    -  0.00e+00 0.00e+00   0
   1  2.5939829e+01 4.08e-01 5.63e+02  -1.0 4.37e+00   2.0 8.59e-01 1.00e+00H  1
   2  2.5940810e+01 3.73e-01 5.89e+02  -1.0 1.93e-01   3.3 1.00e+00 2.50e-01h  3
   3  2.5941842e+01 3.43e-01 4.46e+02  -1.0 1.71e-01   2.9 1.00e+00 2.50e-01h  3
   4  2.5945619e+01 7.31e-01 2.70e+03  -1.0 1.33e-01   3.3 1.00e+00 1.00e+00h  1
   5  2.5946400e+01 1.24e-01 1.41e+03  -1.0 4.80e-02   3.7 1.00e+00 1.00e+00h  1
   6  2.5947582e+01 5.44e-02 1.00e+03  -1.0 6.00e-02   3.2 1.00e+00 1.00e+00h  1
   7  2.5948126e+01 9.55e-04 4.30e+01  -1.0 1.49e-02   2.7 1.00e+00 1.00e+00h  1
   8  2.5948018e+01 4.68e-07 7.03e-02  -1.0 1.07e-04   2.3 1.00e+00 1.00e+00h  1
   9  1.0930121e+01 5.15e+00 1.92e-01  -2.5 1.50e+01    -  4.11e-01 1.00e+00f  1
iter    objective    inf_pr   inf_du lg(mu)  ||d||  lg(rg) alpha_du alpha_pr  ls
  10  1.5729672e+01 5.75e+00 2.45e-01  -2.5 5.79e+00    -  5.41e-01 1.00e+00H  1
  11  1.5820330e+01 4.54e+00 2.71e+03  -2.5 3.23e+00   1.8 1.09e-01 2.10e-01h  1
  12  1.5885003e+01 3.92e+00 2.04e+03  -2.5 2.59e+00   2.2 1.46e-03 1.49e-01h  1
  13  1.5954331e+01 3.30e+00 2.13e+03  -2.5 3.95e+00   2.6 2.50e-03 1.62e-01h  1
  14  1.5955047e+01 3.30e+00 2.13e+03  -2.5 3.11e+00   2.2 2.55e-01 1.65e-03h  1
  15  1.5985578e+01 3.05e+00 1.75e+03  -2.5 2.88e+00   2.6 3.16e-01 7.51e-02h  1
  16  1.5985783e+01 3.05e+00 1.75e+03  -2.5 2.67e+00   2.1 3.88e-01 4.45e-04h  1
  17  1.6015043e+01 2.84e+00 2.22e+03  -2.5 2.83e+00   2.5 5.49e-01 6.86e-02h  1
  18  1.6018869e+01 2.81e+00 4.14e+03  -2.5 2.39e+00   3.0 3.95e-01 9.47e-03h  1
  19  1.6042040e+01 2.66e+00 5.46e+03  -2.5 2.80e+00   2.5 1.00e+00 5.43e-02h  1
iter    objective    inf_pr   inf_du lg(mu)  ||d||  lg(rg) alpha_du alpha_pr  ls
  20  1.6072679e+01 2.46e+00 6.13e+03  -2.5 3.39e+00   2.9 2.23e-01 7.67e-02h  1
  21  1.6111126e+01 2.23e+00 4.76e+03  -2.5 3.76e+00   2.4 7.07e-01 9.59e-02h  1
  22  1.6159110e+01 1.94e+00 9.35e+03  -2.5 3.12e+00   2.9 1.00e+00 1.32e-01h  1
  23  1.6164333e+01 1.91e+00 1.32e+04  -2.5 2.14e+00   3.3 2.43e-01 1.61e-02h  1
  24  1.6265802e+01 2.34e+00 1.71e+04  -2.5 2.77e+00   2.8 1.00e+00 3.02e-01h  1
  25  1.6267263e+01 2.33e+00 1.70e+04  -2.5 1.91e+00   3.2 6.46e-01 5.98e-03h  1
  26  1.6419963e+01 4.02e+00 2.11e+04  -2.5 2.86e+00   2.8 1.00e+00 5.84e-01h  1
  27  1.6420759e+01 3.99e+00 2.09e+04  -2.5 1.52e+00   3.2 2.96e-01 6.70e-03h  1
  28  1.6499991e+01 1.00e+00 7.68e+03  -2.5 1.52e+00   2.7 1.00e+00 6.27e-01h  1
  29  1.6553822e+01 1.98e-01 5.53e+02  -2.5 4.31e-01   2.2 1.00e+00 1.00e+00h  1
iter    objective    inf_pr   inf_du lg(mu)  ||d||  lg(rg) alpha_du alpha_pr  ls
  30  1.6554279e+01 1.11e-02 1.15e+02  -2.5 6.23e-02   2.7 7.79e-01 1.00e+00h  1
  31  1.6554313e+01 1.24e-04 4.35e+00  -2.5 3.58e-03   3.1 1.00e+00 1.00e+00h  1
  32  1.6554326e+01 1.44e-06 8.40e-01  -2.5 2.05e-03   2.6 1.00e+00 1.00e+00f  1
  33  1.6554329e+01 1.68e-06 1.65e-01  -2.5 1.20e-03   2.1 1.00e+00 1.00e+00f  1
  34  1.6554335e+01 7.01e-06 1.74e-01  -2.5 3.82e-03   1.7 1.00e+00 1.00e+00f  1
  35  1.6554294e+01 8.67e-06 6.75e-02  -2.5 4.44e-03   1.2 1.00e+00 1.00e+00f  1
  36  1.6554126e+01 3.84e-05 4.65e-02  -2.5 9.19e-03   0.7 1.00e+00 1.00e+00f  1
  37  1.6553494e+01 2.67e-04 2.18e-02  -2.5 1.29e-02   0.2 1.00e+00 1.00e+00h  1
  38  1.6551326e+01 9.82e-04 4.65e-03  -3.8 8.27e-03  -0.2 1.00e+00 1.00e+00h  1
  39  1.6545165e+01 4.35e-03 5.44e-03  -3.8 2.90e-02  -0.7 1.00e+00 1.00e+00h  1
iter    objective    inf_pr   inf_du lg(mu)  ||d||  lg(rg) alpha_du alpha_pr  ls
  40  1.6527994e+01 5.02e-02 5.57e-03  -3.8 8.90e-02  -1.2 1.00e+00 1.00e+00h  1
  41  1.6487679e+01 1.02e-01 1.54e-02  -3.8 1.91e-01  -1.7 1.00e+00 1.00e+00h  1
  42  1.6387311e+01 5.84e-01 1.45e-02  -3.8 5.87e-01  -2.2 1.00e+00 1.00e+00h  1
  43  1.6353997e+01 2.77e-01 6.23e-03  -3.8 3.36e-01  -1.7 1.00e+00 1.00e+00h  1
  44  1.6251033e+01 2.23e-01 3.51e-03  -3.8 5.69e-01  -2.2 1.00e+00 1.00e+00h  1
  45  1.6107794e+01 1.06e+00 1.14e-02  -3.8 1.89e+00  -2.7 1.00e+00 5.18e-01h  1
  46  1.6051092e+01 7.17e-01 7.54e-03  -3.8 6.59e-01  -2.3 4.92e-01 5.79e-01h  1
  47  1.5719523e+01 1.48e+01 4.32e-02  -3.8 3.68e+02    -  3.27e-02 2.94e-02f  1
  48  1.5699642e+01 1.47e+01 4.30e-02  -3.8 4.42e+01    -  7.25e-03 6.12e-03h  1
  49  1.5601303e+01 1.42e+01 4.16e-02  -3.8 3.54e+01    -  3.06e-02 3.26e-02f  1
iter    objective    inf_pr   inf_du lg(mu)  ||d||  lg(rg) alpha_du alpha_pr  ls
  50  1.5599151e+01 1.36e+01 3.97e-02  -3.8 1.52e+01  -2.7 4.55e-02 4.54e-02h  1
  51  1.5576544e+01 1.34e+01 3.92e-02  -3.8 3.39e+01    -  2.15e-02 1.30e-02h  1
  52  1.5494460e+01 1.27e+01 3.75e-02  -3.8 5.72e+01    -  3.82e-02 4.33e-02h  1
  53  1.5413624e+01 1.19e+01 3.53e-02  -3.8 1.68e+01    -  2.43e-02 6.12e-02h  1
  54  1.5403504e+01 1.20e+01 3.53e-02  -3.8 2.41e+04    -  5.04e-05 2.34e-04h  1
  55  1.5298693e+01 1.11e+01 3.27e-02  -3.8 2.46e+01    -  5.11e-02 7.65e-02h  1
  56  1.5162801e+01 9.53e+00 2.82e-02  -3.8 1.09e+01    -  6.47e-02 1.46e-01h  1
  57  1.5119517e+01 8.58e+00 2.54e-02  -3.8 1.61e+01    -  1.79e-01 1.02e-01h  1
  58  1.5119441e+01 8.37e+00 2.48e-02  -3.8 1.78e+01  -3.2 4.20e-02 2.44e-02h  2
  59  1.5120337e+01 7.25e+00 2.15e-02  -3.8 4.52e+00  -2.8 1.10e-01 1.34e-01h  1
iter    objective    inf_pr   inf_du lg(mu)  ||d||  lg(rg) alpha_du alpha_pr  ls
  60  1.5155551e+01 6.38e+00 2.62e+00  -3.8 3.92e+00  -2.4 1.18e-01 1.00e+00h  1
  61  1.5156246e+01 5.75e+00 2.32e+00  -3.8 2.37e+00  -1.0 4.72e-01 1.05e-01h  1
  62  1.5155973e+01 5.35e+00 2.18e+00  -3.8 3.36e+00  -1.5 2.48e-01 6.19e-02h  1
  63  1.5180730e+01 2.55e+00 4.05e+00  -3.8 3.19e+00  -2.0 5.25e-01 1.00e+00h  1
  64  1.5177112e+01 2.06e+00 1.97e-01  -3.8 4.26e+00  -1.6 1.88e-01 2.45e-01h  1
  65  1.5177515e+01 2.02e+00 1.77e-01  -3.8 3.38e+00  -2.0 6.30e-03 3.78e-02h  1
  66  1.5179459e+01 2.37e+00 1.09e-01  -3.8 1.14e+00  -1.6 1.00e+00 4.51e-01h  1
  67  1.5179963e+01 2.28e+00 1.01e-01  -3.8 1.21e+00  -1.2 5.90e-02 7.98e-02h  2
  68r 1.5179963e+01 2.28e+00 9.99e+02   0.4 0.00e+00  -1.7 0.00e+00 2.66e-07R  9
  69r 1.5183799e+01 1.72e+00 9.99e+02   0.4 2.16e+03    -  1.68e-04 2.79e-04f  1
iter    objective    inf_pr   inf_du lg(mu)  ||d||  lg(rg) alpha_du alpha_pr  ls
  70  1.5061321e+01 6.01e+00 9.38e-01  -3.8 1.07e+02    -  7.22e-02 6.23e-02h  1
  71  1.5069560e+01 5.10e+00 7.69e-01  -3.8 1.96e+00  -2.1 1.45e-01 1.79e-01h  1
  72  1.5090066e+01 3.04e+00 4.54e-01  -3.8 4.52e+00  -2.6 4.48e-01 4.10e-01h  1
  73  1.5107795e+01 2.03e+00 1.04e-01  -3.8 2.57e+00  -3.1 2.66e-01 7.71e-01h  1
  74  1.5115680e+01 1.98e+00 8.50e-02  -3.8 5.53e-01  -1.8 6.13e-01 8.42e-01h  1
  75  1.5118160e+01 7.23e-01 8.41e-01  -3.8 3.00e-01  -0.4 1.00e+00 7.16e-01h  1
  76  1.5120650e+01 7.16e-01 2.45e+00  -3.8 1.89e-01  -0.0 1.00e+00 1.00e+00h  1
  77  1.5121803e+01 4.85e-01 1.56e+00  -3.8 7.85e-01  -0.5 1.00e+00 5.00e-01h  2
  78  1.5121088e+01 8.53e-01 3.78e+00  -3.8 3.18e-01  -0.1 1.00e+00 1.00e+00h  1
  79  1.5121493e+01 8.31e-01 8.69e+00  -3.8 1.02e-01   1.3 1.00e+00 1.00e+00h  1
iter    objective    inf_pr   inf_du lg(mu)  ||d||  lg(rg) alpha_du alpha_pr  ls
  80  1.5120003e+01 1.31e+00 1.89e+01  -3.8 3.63e-01   1.7 1.00e+00 1.00e+00h  1
  81  1.5120339e+01 8.31e-01 1.46e+02  -3.8 2.86e-01   2.1 4.59e-01 5.00e-01h  2
  82  1.5121113e+01 4.57e-01 3.78e+02  -3.8 2.01e-01   2.5 1.00e+00 5.00e-01h  2
  83  1.5120889e+01 4.57e-01 3.42e+02  -3.8 4.71e-01   3.0 1.00e+00 1.25e-01h  4
  84  1.5121599e+01 6.06e-02 6.66e+01  -3.8 5.62e-02   2.5 1.00e+00 1.00e+00h  1
  85  1.5121690e+01 2.39e-03 1.56e+01  -3.8 1.81e-02   2.0 1.00e+00 1.00e+00h  1
  86  1.5121690e+01 8.29e-06 1.72e-01  -3.8 3.90e-04   1.5 1.00e+00 1.00e+00h  1
  87  1.5093480e+01 6.13e-01 1.04e-01  -3.8 4.04e+00    -  5.12e-01 3.88e-01f  1
  88  1.5075462e+01 7.62e-01 3.55e-02  -3.8 3.18e+00    -  1.00e+00 8.42e-01h  1
  89  1.5075947e+01 6.37e-01 1.17e+01  -3.8 1.78e-01   1.1 1.00e+00 2.15e-01h  1
iter    objective    inf_pr   inf_du lg(mu)  ||d||  lg(rg) alpha_du alpha_pr  ls
  90  1.5080375e+01 1.62e-01 3.13e+00  -3.8 1.99e-01   0.6 8.48e-01 1.00e+00h  1
  91  1.5081967e+01 4.27e-02 1.31e+00  -3.8 7.50e-02   1.0 1.00e+00 1.00e+00h  1
  92  1.5082286e+01 6.36e-03 5.56e-01  -3.8 2.04e-02   1.4 1.00e+00 1.00e+00h  1
  93  1.5082364e+01 5.62e-04 1.05e-01  -3.8 4.53e-03   1.0 1.00e+00 1.00e+00h  1
  94  1.5082330e+01 2.47e-05 5.06e-03  -3.8 1.22e-03   0.5 1.00e+00 1.00e+00h  1
  95  1.5074285e+01 4.11e+00 6.20e-02  -3.8 3.63e+00    -  5.48e-01 4.84e-01f  2
  96  1.5074988e+01 1.77e+00 8.85e-01  -3.8 7.53e-01   0.0 6.36e-01 2.13e-01h  1
  97  1.5077281e+01 1.13e+00 2.68e+01  -3.8 7.48e-01   1.3 1.00e+00 2.47e-01h  2
  98  1.5080030e+01 5.71e-01 2.38e+01  -3.8 2.20e-01   1.8 1.00e+00 2.68e-01h  2
  99  1.5080744e+01 5.35e-01 2.22e+01  -3.8 1.59e-01   1.3 1.72e-01 6.25e-02h  5
iter    objective    inf_pr   inf_du lg(mu)  ||d||  lg(rg) alpha_du alpha_pr  ls
 100  1.5080842e+01 5.30e-01 2.21e+01  -3.8 1.51e-01   0.8 9.38e-01 7.81e-03h  8
 101  1.5080927e+01 5.26e-01 2.19e+01  -3.8 1.49e-01   1.2 2.25e-01 7.81e-03h  8
 102  1.5080928e+01 5.26e-01 2.19e+01  -3.8 1.52e-01   0.8 1.00e+00 6.10e-05h 15
 103  1.5080929e+01 5.26e-01 2.19e+01  -3.8 1.48e-01   1.2 2.24e-01 6.10e-05h 15
 104  1.5091555e+01 7.81e-01 1.74e+02  -3.8 1.47e-01   1.6 1.00e+00 1.00e+00h  1
 105  1.5091384e+01 2.74e-01 1.23e+02  -3.8 1.14e-01   2.0 1.00e+00 5.65e-01h  1
 106  1.5091358e+01 5.15e-01 3.43e+02  -3.8 6.26e-01   2.5 1.00e+00 1.25e-01h  4
 107  1.5091651e+01 2.57e-01 1.14e+02  -3.8 8.78e-02   2.9 1.00e+00 1.00e+00h  1
 108  1.5092790e+01 1.46e-02 2.38e+01  -3.8 5.73e-02   2.4 1.00e+00 1.00e+00h  1
 109  1.5092925e+01 2.26e-04 1.20e+00  -3.8 3.29e-03   1.9 1.00e+00 1.00e+00h  1
iter    objective    inf_pr   inf_du lg(mu)  ||d||  lg(rg) alpha_du alpha_pr  ls
 110  1.5092921e+01 1.68e-04 7.97e-02  -3.8 2.80e-03   1.5 1.00e+00 1.00e+00h  1
 111  1.5092881e+01 3.78e-06 3.79e-03  -3.8 3.52e-04   1.0 1.00e+00 1.00e+00h  1
 112  1.5076019e+01 1.59e+00 3.14e-02  -3.8 1.84e+01    -  8.54e-02 6.37e-02f  1
 113  1.5065642e+01 9.49e-01 1.42e-01  -3.8 1.75e+00    -  6.37e-02 5.66e-01h  1
 114  1.5063125e+01 2.41e+00 3.37e-02  -3.8 1.38e+00    -  6.23e-01 7.46e-01h  1
 115  1.5066285e+01 2.03e+00 6.48e+00  -3.8 6.58e-01   0.5 5.77e-04 2.50e-01h  3
 116  1.5074069e+01 1.06e+00 3.90e+00  -3.8 7.93e-01   0.0 3.78e-01 4.56e-01h  2
 117  1.5078318e+01 1.04e+00 2.53e+00  -3.8 3.89e-01   0.4 7.63e-01 3.93e-01h  2
 118  1.5081362e+01 1.40e+00 3.63e+01  -3.8 4.80e-01   0.9 5.96e-01 5.00e-01h  2
 119  1.5086885e+01 5.06e-01 5.47e+01  -3.8 2.83e-01   1.3 1.00e+00 1.00e+00h  1
iter    objective    inf_pr   inf_du lg(mu)  ||d||  lg(rg) alpha_du alpha_pr  ls
 120  1.5087227e+01 2.12e-01 8.56e+01  -3.8 1.23e-01   2.6 1.00e+00 1.00e+00h  1
 121  1.5087479e+01 4.76e-02 6.40e+01  -3.8 2.93e-02   3.1 1.00e+00 1.00e+00h  1
 122  1.5087615e+01 5.59e-03 1.08e+01  -3.8 9.41e-03   2.6 1.00e+00 1.00e+00h  1
 123  1.5087622e+01 6.03e-05 8.13e-01  -3.8 9.09e-04   2.1 1.00e+00 1.00e+00h  1
 124  1.5087617e+01 7.29e-07 7.91e-03  -3.8 1.88e-04   1.6 1.00e+00 1.00e+00h  1
 125  1.5078102e+01 7.42e-01 1.01e-02  -3.8 8.49e+00    -  2.25e-01 9.56e-02f  2
 126  1.5078707e+01 4.75e-01 4.62e+00  -3.8 1.50e-01   1.1 1.00e+00 3.57e-01h  1
 127  1.5081486e+01 3.99e-02 2.90e+00  -3.8 9.37e-02   0.7 1.00e+00 1.00e+00h  1
 128  1.5082184e+01 3.00e-03 3.05e-01  -3.8 1.21e-02   0.2 1.00e+00 1.00e+00h  1
 129  1.5081919e+01 2.19e-03 1.82e-02  -3.8 8.71e-03  -0.3 1.00e+00 1.00e+00h  1
iter    objective    inf_pr   inf_du lg(mu)  ||d||  lg(rg) alpha_du alpha_pr  ls
 130  1.5076966e+01 1.51e+00 1.09e-01  -3.8 8.99e-01    -  1.00e+00 3.72e-01h  1
 131  1.5077536e+01 3.18e-01 5.00e-02  -3.8 3.59e-02  -0.8 1.00e+00 1.00e+00h  1
 132  1.5077751e+01 2.35e-01 2.61e-02  -3.8 5.08e-02  -1.2 1.00e+00 1.00e+00h  1
 133  1.5077807e+01 2.33e-01 2.26e-02  -3.8 1.75e-01  -1.7 1.00e+00 1.25e-01h  4
 134  1.5077618e+01 5.19e-02 8.52e-03  -3.8 5.39e-02  -1.3 1.00e+00 1.00e+00h  1
 135  1.5076323e+01 3.90e-01 2.04e-03  -3.8 3.26e-01    -  1.00e+00 1.00e+00h  1
 136  1.5076296e+01 3.93e-01 3.75e-03  -3.8 6.29e-01    -  1.00e+00 5.00e-01h  2
 137  1.5076855e+01 2.02e-02 2.11e-03  -3.8 3.09e-01    -  1.00e+00 1.00e+00H  1
 138  1.5076889e+01 5.60e-04 3.28e-04  -3.8 1.92e-02  -1.8 1.00e+00 1.00e+00h  1
 139  1.5070835e+01 2.08e-01 6.28e-03  -5.7 4.32e-01    -  8.78e-01 6.03e-01h  1
iter    objective    inf_pr   inf_du lg(mu)  ||d||  lg(rg) alpha_du alpha_pr  ls
 140  1.5069094e+01 8.75e-02 1.09e-02  -5.7 3.68e-01    -  8.55e-01 5.75e-01h  1
 141  1.5068715e+01 5.35e-02 3.14e-03  -5.7 2.52e-01    -  8.73e-01 7.65e-01h  1
 142  1.5068393e+01 8.42e-01 1.42e-02  -5.7 3.01e-01    -  8.59e-01 1.00e+00h  1
 143  1.5065778e+01 5.13e-01 1.06e-02  -5.7 3.58e-01    -  8.24e-01 3.82e-01h  1
 144  1.5065337e+01 1.95e-01 1.25e-03  -5.7 2.25e-01    -  3.77e-01 1.00e+00h  1
 145  1.5068725e+01 6.22e-03 1.10e-03  -5.7 4.52e-02  -2.2 1.00e+00 1.00e+00h  1
 146  1.5068555e+01 7.32e-02 2.58e-03  -5.7 8.35e-01    -  1.00e+00 1.24e-01h  3
 147  1.5068653e+01 3.67e-02 2.30e-03  -5.7 5.80e-02    -  1.00e+00 5.00e-01h  2
 148  1.5068688e+01 2.76e-02 1.72e-03  -5.7 5.66e-02    -  1.00e+00 2.50e-01h  3
 149  1.5068812e+01 1.29e-02 3.73e-04  -5.7 2.58e-02    -  1.00e+00 1.00e+00h  1
iter    objective    inf_pr   inf_du lg(mu)  ||d||  lg(rg) alpha_du alpha_pr  ls
 150  1.5068901e+01 2.94e-03 5.38e-03  -5.7 7.86e-02    -  1.00e+00 1.00e+00H  1
 151  1.5068858e+01 4.48e-03 5.70e-04  -5.7 1.06e-01    -  2.72e-01 1.00e+00H  1
 152  1.5068833e+01 1.50e-02 1.68e-03  -5.7 2.03e-01    -  1.00e+00 1.03e-01h  3
 153  1.5068849e+01 6.22e-04 2.65e-03  -5.7 3.57e-02    -  1.00e+00 1.00e+00H  1
 154  1.5068849e+01 3.24e-03 4.78e-04  -5.7 5.59e-02    -  1.00e+00 1.00e+00H  1
 155  1.5068771e+01 1.13e-01 6.62e-03  -5.7 1.43e-01    -  1.00e+00 6.08e-01h  1
 156  1.5068729e+01 3.78e-02 3.12e-03  -5.7 1.06e-01    -  6.71e-02 1.00e+00h  1
 157  1.5068678e+01 9.77e-02 4.61e-03  -5.7 2.75e-01    -  1.00e+00 2.28e-01h  1
 158  1.5068717e+01 4.86e-02 2.74e-03  -5.7 6.71e-02    -  6.71e-02 5.00e-01h  2
 159  1.5068773e+01 7.76e-03 2.57e-04  -5.7 3.17e-02    -  1.00e+00 1.00e+00h  1
iter    objective    inf_pr   inf_du lg(mu)  ||d||  lg(rg) alpha_du alpha_pr  ls
 160  1.5068855e+01 8.82e-05 3.93e-03  -5.7 5.51e-02    -  1.00e+00 1.00e+00H  1
 161  1.5068841e+01 2.13e-03 4.88e-04  -5.7 7.91e-02    -  5.68e-01 1.00e+00H  1
 162  1.5068834e+01 3.27e-03 6.20e-04  -5.7 1.33e-01    -  1.00e+00 7.53e-02h  4
 163  1.5068869e+01 7.75e-06 4.66e-03  -5.7 6.70e-02    -  1.00e+00 1.00e+00H  1
 164  1.5068841e+01 2.22e-03 4.81e-04  -5.7 8.82e-02    -  5.11e-01 1.00e+00H  1
 165  1.5068793e+01 9.68e-02 5.83e-03  -5.7 1.33e-01    -  1.00e+00 6.05e-01h  1
 166  1.5068729e+01 3.03e-02 5.24e-04  -5.7 9.24e-02    -  4.59e-01 1.00e+00f  1
 167  1.5068725e+01 5.76e-02 3.10e-03  -5.7 1.68e-01    -  1.00e+00 2.53e-01h  2
 168  1.5068727e+01 5.58e-02 3.01e-03  -5.7 4.44e-02    -  1.00e+00 3.12e-02h  6
 169  1.5068727e+01 5.56e-02 3.00e-03  -5.7 4.25e-02    -  1.00e+00 3.91e-03h  9
iter    objective    inf_pr   inf_du lg(mu)  ||d||  lg(rg) alpha_du alpha_pr  ls
 170  1.5068727e+01 5.55e-02 2.99e-03  -5.7 4.22e-02    -  1.00e+00 9.77e-04h 11
 171  1.5068727e+01 5.55e-02 2.99e-03  -5.7 4.21e-02    -  1.00e+00 4.88e-04h 12
 172  1.5068727e+01 5.55e-02 2.99e-03  -5.7 4.21e-02    -  1.00e+00 2.44e-04h 13
 173  1.5068796e+01 3.42e-02 5.04e-04  -5.7 4.21e-02    -  1.00e+00 1.00e+00h  1
 174  1.5068778e+01 3.79e-02 1.96e-03  -5.7 2.03e-01    -  1.00e+00 1.27e-01h  3
 175  1.5068809e+01 1.68e-02 2.14e-03  -5.7 4.11e-02    -  1.00e+00 1.00e+00h  1
 176  1.5068855e+01 5.71e-03 5.37e-04  -5.7 6.38e-02    -  1.00e+00 1.00e+00H  1
 177  1.5068842e+01 5.82e-03 8.41e-04  -5.7 2.24e-01    -  1.00e+00 5.61e-02h  4
 178  1.5068833e+01 7.63e-03 1.62e-03  -5.7 1.10e-01    -  1.00e+00 1.05e-01h  4
 179  1.5068849e+01 1.23e-03 3.25e-03  -5.7 5.12e-02    -  1.00e+00 1.00e+00H  1
iter    objective    inf_pr   inf_du lg(mu)  ||d||  lg(rg) alpha_du alpha_pr  ls
 180  1.5068843e+01 3.14e-03 4.89e-04  -5.7 7.44e-02    -  7.95e-01 1.00e+00H  1
 181  1.5068828e+01 1.03e-02 1.49e-03  -5.7 1.48e-01    -  1.00e+00 1.38e-01h  3
 182  1.5068821e+01 1.17e-03 3.34e-04  -5.7 1.83e-02    -  1.00e+00 1.00e+00h  1
 183  1.5068828e+01 1.06e-03 3.20e-04  -5.7 3.94e-03    -  1.00e+00 1.00e+00h  1
 184  1.5068829e+01 1.41e-05 5.16e-04  -5.7 5.62e-03    -  1.00e+00 1.00e+00H  1
 185  1.5068831e+01 6.67e-06 2.67e-04  -5.7 1.69e-02    -  1.00e+00 1.00e+00H  1
 186  1.5068816e+01 4.06e-02 4.90e-03  -5.7 5.79e-02    -  1.00e+00 1.00e+00h  1
 187  1.5068793e+01 1.46e-02 4.53e-04  -5.7 7.64e-02    -  4.51e-01 1.00e+00h  1
 188  1.5068793e+01 1.35e-02 4.03e-04  -5.7 9.90e-02    -  1.00e+00 1.05e-01h  4
 189  1.5068859e+01 3.31e-06 4.00e-03  -5.7 5.88e-02    -  1.00e+00 1.00e+00H  1
iter    objective    inf_pr   inf_du lg(mu)  ||d||  lg(rg) alpha_du alpha_pr  ls
 190  1.5068804e+01 1.26e-02 4.23e-04  -5.7 7.49e-02    -  7.86e-01 1.00e+00h  1
 191  1.5068894e+01 1.57e-06 5.89e-03  -5.7 8.70e-02    -  1.00e+00 1.00e+00H  1
 192  1.5068773e+01 1.25e-02 4.24e-04  -5.7 9.83e-02    -  9.24e-01 1.00e+00h  1
 193  1.5068894e+01 1.50e-07 5.90e-03  -5.7 8.76e-02    -  1.00e+00 1.00e+00H  1
 194  1.5068773e+01 1.31e-02 4.26e-04  -5.7 9.90e-02    -  1.00e+00 1.00e+00f  1
 195  1.5068779e+01 1.25e-02 1.46e-03  -5.7 8.90e-02    -  1.00e+00 2.35e-01h  3
 196  1.5068802e+01 6.90e-03 1.93e-04  -5.7 4.73e-03    -  1.00e+00 5.00e-01h  2
 197  1.5068828e+01 1.68e-04 4.13e-05  -5.7 8.10e-03    -  1.00e+00 1.00e+00h  1
 198  1.5068829e+01 1.28e-05 9.05e-06  -5.7 8.19e-04    -  1.00e+00 1.00e+00h  1
 199  1.5068759e+01 2.72e-05 2.96e-06  -7.0 3.79e-02    -  1.00e+00 9.97e-01h  1
iter    objective    inf_pr   inf_du lg(mu)  ||d||  lg(rg) alpha_du alpha_pr  ls
 200  1.5068759e+01 2.46e-06 3.56e-08  -7.0 6.40e-03    -  1.00e+00 1.00e+00f  1
 201  1.5068759e+01 1.43e-07 3.82e-10  -7.0 1.08e-03    -  1.00e+00 1.00e+00h  1

Number of Iterations....: 201

                                   (scaled)                 (unscaled)
Objective...............:   1.5068758837048117e+01    1.5068758837048117e+01
Dual infeasibility......:   3.8194058651178181e-10    3.8194058651178181e-10
Constraint violation....:   1.4280470228555942e-07    1.4280470228555942e-07
Variable bound violation:   0.0000000000000000e+00    0.0000000000000000e+00
Complementarity.........:   9.5213484775449970e-08    9.5213484775449970e-08
Overall NLP error.......:   1.4280470228555942e-07    1.4280470228555942e-07


Number of objective function evaluations             = 435
Number of objective gradient evaluations             = 202
Number of equality constraint evaluations            = 435
Number of inequality constraint evaluations          = 435
Number of equality constraint Jacobian evaluations   = 203
Number of inequality constraint Jacobian evaluations = 203
Number of Lagrangian Hessian evaluations             = 201
Total seconds in IPOPT                               = 32.431

EXIT: Optimal Solution Found.
      solver  :   t_proc      (avg)   t_wall      (avg)    n_eval
       nlp_f  |  14.71ms ( 33.81us)  14.78ms ( 33.97us)       435
       nlp_g  |   1.86 s (  4.27ms)   1.87 s (  4.30ms)       435
  nlp_grad_f  |  11.80ms ( 58.13us)  11.87ms ( 58.46us)       203
  nlp_hess_l  |  20.89 s (104.47ms)  21.02 s (105.08ms)       200
   nlp_jac_g  |   5.79 s ( 28.36ms)   5.82 s ( 28.53ms)       204
       total  |  32.25 s ( 32.25 s)  32.43 s ( 32.43 s)         1
  Success: True
  Cost: 15.0688
  Iterations: 201
  Solve time: 41.68 s
  Max obstacle slack: 0.0000e+00
  Min obstacle clearance: inf m
  Accepted: True

Accepted attempt: baseline

Generating plots...
  Saved: /run/media/saveas/Secondary-Storage/Masters/CS234/CS234_Reinforcement_Learning/Final Project/CS234_Final_Project/results/trajectory_optimization/ipopt_single_stage_trajectory.png
  Saved: /run/media/saveas/Secondary-Storage/Masters/CS234/CS234_Reinforcement_Learning/Final Project/CS234_Final_Project/results/trajectory_optimization/ipopt_single_stage_states.png
  Saved: /run/media/saveas/Secondary-Storage/Masters/CS234/CS234_Reinforcement_Learning/Final Project/CS234_Final_Project/results/trajectory_optimization/ipopt_single_stage_controls.png

Generating animation...
  Saved: /run/media/saveas/Secondary-Storage/Masters/CS234/CS234_Reinforcement_Learning/Final Project/CS234_Final_Project/results/trajectory_optimization/ipopt_single_stage_animation.gif

======================================================================
SUMMARY
======================================================================
Selected attempt: baseline
Attempt                    N      Subs   Clear    Iters    Time [s]   Cost [s]   Max Sigma    Min Clear [m]  Accepted
-----------------------------------------------------------------------------------------------------------------------------
baseline                   120    7      0.000    201      41.68      15.0688    0.000e+00    inf            True

All outputs saved to: /run/media/saveas/Secondary-Storage/Masters/CS234/CS234_Reinforcement_Learning/Final Project/CS234_Final_Project/results/trajectory_optimization
